Name: Vecuronium cation
Related_CAS#: 50700726
Synon: Piperidinium, 1-[(2.beta.,3.alpha.,5.alpha.,16.beta.,17.beta.)-3,17-bis(acetyloxy)-2-(1-piperidinyl)androstan-16-yl]-1-methyl-
Notes: Consensus spectrum; Acetonitrile/Water/Formic acid; Vial_ID=5456; mz_diff=-0.0001; Nreps=14/14
Precursor_type: [Cat+H]2+
Spectrum_type: MS2
PrecursorMZ: 279.2193
Instrument_type: HCD
Instrument: Thermo Finnigan Elite Orbitrap
Sample_inlet: direct flow injection
Ionization: ESI
Collision_gas: N2
Collision_energy: 15
Ion_mode: P
InChIKey: BGSZAXLLHYERSY-BUUZSRGOSA-N
Formula: C34H57N2O4
MW: 557
ExactMass: 557.431835
CASNO: 86029438
NISTNO: 1163660
ID: 116357
Comment: NIST Mass Spectrometry Data Center
Num peaks: 22
81.0699 9.29 "C6H9=p-C28H48N2O4/0.2ppm;C12H18^2=p-C22H40N2O4^2/-3.1ppm 14/14"
86.0962 56.04 "C5H12N=p-C29H45NO4/-2.6ppm;C10H24N2^2=p-C24H34O4^2/-5.8ppm 14/14"
98.0964 3.20 "C6H12N=p-C28H45NO4/-0.2ppm;C12H24N2^2=p-C22H34O4^2/-3.1ppm 7/14"
99.1042 2.10 "C6H13N=p-C28H44NO4/-0.5ppm;C12H26N2^2=p-C22H32O4^2/-3.2ppm 8/14"
100.1120 84.02 "C6H14N=p-C28H43NO4/-0.7ppm;C12H28N2^2=p-C22H30O4^2/-3.5ppm 14/14"
206.6644 9.29 "C27H43NO2^2=p-C7H15NO2^2/-0.0ppm 10/14"
236.6750 11.39 "C29H47NO4^2=p-C5H11N^2/0.1ppm;C32H45N2O^2=p-C2H13O3^2/-5.6ppm 11/14"
237.1766 2.30 "C29H47NO4+i^2=p-C5H11N+i^2/-0.2ppm;C33H46O2^2=p-CH12O2N2^2/8.3ppm;C29H48NO4^2=p-C5H10N^2/-9.7ppm 7/14"
249.2089 155.14 "C32H54N2O2^2=p-C2H4O2^2/-0.4ppm;C16H27NO=p-C18H30NO3/0.8ppm 14/14"
249.7106 36.86 "C32H54N2O2+i^2=p-C2H4O2+i^2/-0.1ppm;C32H55N2O2^2=p-C2H3O2^2/-9.2ppm 14/14"
279.2194 999.00 "C17H29NO2=p-C17H28NO2/0.4ppm;p^2/-0.5ppm 14/14"
279.7209 254.84 "p+i^2/-1.1ppm 14/14"
332.2587 5.89 "C21H34NO2=p-C13H23NO2/0.9ppm 12/14"
356.2949 20.88 "C24H38NO=p-C10H19NO3/0.3ppm;C21H40O4=p-C13H17N2/7.8ppm 14/14"
398.3058 13.99 "C26H40NO2=p-C8H17NO2/1.1ppm 14/14"
416.3162 18.88 "C26H42NO3=p-C8H15NO/0.7ppm;C29H40N2=p-C5H17O4/-5.8ppm 14/14"
417.3192 1.70 "C26H42NO3+i=p-C8H15NO+i/-0.1ppm;C30H41O=p-C4H16O3N2/9.6ppm 8/14"
430.3318 70.83 "C27H44NO3=p-C7H13NO/0.5ppm;C30H42N2=p-C4H15O4/-5.7ppm 14/14"
431.3352 13.49 "C27H44NO3+i=p-C7H13NO+i/0.7ppm;C27H45NO3=p-C7H12NO/-9.7ppm 14/14"
458.3266 9.39 "C28H44NO4=p-C6H13N/0.3ppm;C31H42N2O=p-C3H15O3/-5.6ppm 14/14"
472.3424 23.38 "C29H46NO4=p-C5H11N/0.6ppm;C32H44N2O=p-C2H13O3/-5.1ppm 14/14"
473.3443 3.40 "C29H46NO4+i=p-C5H11N+i/-2.5ppm;C33H45O2=p-CH12O2N2/6.1ppm 10/14"
